
  Minimize
   Obj: -40 X02 -32 X14 -60 X23 -48 X36 +1000 X39
  Subject to
   R09: -1 X01 +1 X02 +1 X03 = +0
   R10: -106 X01 +100 X04 = +0
   X05: +1 X01 <= +80
   X21: -10 X02 +14 X14 <= +0
   R12: -1 X06 -1 X07 -1 X08 -1 X09 +1 X14 +1 X15 = +0
   R13: -106 X06 -106 X07 -96 X08 -86 X09 +100 X16 = +0
   X17: +1 X06 -1 X10 <= +80
   X18: +1 X07 -1 X11 <= +0
   X19: +1 X08 -1 X12 <= +0
   X20: +1 X09 -1 X13 <= +0
   R19: -1 X22 +1 X23 +1 X24 +1 X25 = +0
   R20: -43 X22 +100 X26 = +0
   X27: +1 X22 <= +500
   X44: -10 X23 +14 X36 <= +0
   R22: -43 X28 -43 X29 -39 X30 -37 X31 +100 X38 = +0
   R23: +1 X28 +1 X29 +1 X30 +1 X31 -1 X36 +1 X37 +1 X39 = +44
   X40: +1 X28 -1 X32 <= +500
   X41: +1 X29 -1 X33 <= +0
   X42: +1 X30 -1 X34 <= +0
   X43: +1 X31 -1 X35 <= +0
   X45: +2364 X10 +2386 X11 +2408 X12 +2429 X13 -1000 X25 +2191 X32 +2219 X33 +2249 X34 +2279 X35 <= +0
   X46: -1000 X03 +109 X22 <= +0
   X47: -1000 X15 +109 X28 +108 X29 +108 X30 +107 X31 <= +0
   X48: +301 X01 -1000 X24 <= +0
   X49: +301 X06 +313 X07 +313 X08 +326 X09 -1000 X37 <= +0
   X50: +1 X04 +1 X26 <= +310
   X51: +1 X16 +1 X38 <= +300
  Bounds
  End
 
